D = 10;
T = 12;
N = 4;
MinDT=0;
MaxDT=8;
MaxDL=2;
incompatibles=[{2,4,5,6,7,8},{1,3},{4,2},{3,1},{6,1},{5,1},{8,9,10,11,12,1},{7,1},{10,7},{9,7},{12,7},{11,7}];
esSupervisor=[true,true,false,false,false,false,false,true,false,false,false,false];

%tarda 301msec con incompatibles=[{2},{1},{4},{3},{6},{5},{8},{7},{10},{9},{12},{11}], D=2, MaxDT=2

%añadir incompatibilidad tal que incompatibles=[{2},{1},{4},{3},{6},{5},{8},{7},{},{},{},{}] tarda 307msec
%incompatibles=[{2,3},{1},{4,1},{3},{6},{5},{8,9,10},{7},{10,7},{9,7},{12},{11}] tarda 272msec
%incompatibles=[{2,3,4,5,6},{1},{4,1},{3,1},{6,1},{5,1},{8,9,10,11,12},{7},{10,7},{9,7},{12,7},{11,7}] tarda 386msec
%incompatibles=[{2,4,5,6,7,8},{1},{4},{3,1},{6,1},{5,1},{8,9,10,11,12,1},{7,1},{10,7},{9,7},{12,7},{11,7}] tarda 444msec

%incompatibles=[{2,4,5,6,7,8},{1},{4},{3,1},{6,1},{5,1},{8,9,10,11,12,1},{7,1},{10,7},{9,7},{12,7},{11,7}]
%y quitando a 10 de supervisor tarda 329msec

%Con D=3, MAxDT=3 y incompatibles=[{2,4,5,6,7,8},{1},{4},{3,1},{6,1},{5,1},{8,9,10,11,12,1},{7,1},{10,7},{9,7},{12,7},{11,7}]
%tarda 475msec
%Con D=17, MAxDT=17 y incompatibles=[{2,4,5,6,7,8},{1},{4},{3,1},{6,1},{5,1},{8,9,10,11,12,1},{7,1},{10,7},{9,7},{12,7},{11,7}]
%tarda 737msec

%Con D=17, MAxDT=14 y incompatibles=[{2,4,5,6,7,8},{1},{4},{3,1},{6,1},{5,1},{8,9,10,11,12,1},{7,1},{10,7},{9,7},{12,7},{11,7}]
%tarda más de 13 horas
%Con D=17, MAxDT=14 y incompatibles=[{2,4,5,6,7,8},{1},{4},{3,1},{6,1},{5,1},{8,9,10,11,12,1},{7,1},{10,7},{9,7},{12,7},{11,7}]
%tarda más de 43min

%Con D=10, MAxDT=8 y incompatibles=[{2,4,5,6,7,8},{1},{4},{3,1},{6,1},{5,1},{8,9,10,11,12,1},{7,1},{10,7},{9,7},{12,7},{11,7}]
%tarda 24s y es UNSAT